50
150
100
92
91
90
89
85
84
81
80
80
78
78
77
77
76
75
74
73
69
69
68
68
67
67
65
64
63
63
61
60
56
54
54
51
49
45
43
42
39
39
39
38
36
35
34
34
33
32
31
30
